p cnf 34 104
-3 1 0
-3 2 0
-1 -2 3 0
-5 -3 0
-5 4 0
3 -4 5 0
9 7 0
9 8 0
-7 -8 -9 0
6 9 -10 0
-6 -9 -10 0
6 -9 10 0
-6 9 10 0
-1 11 -12 0
1 -11 -12 0
-1 -11 12 0
1 11 12 0
13 10 0
13 12 0
-10 -12 -13 0
-15 -14 0
-15 1 0
14 -1 15 0
-16 -15 0
-16 3 0
15 -3 16 0
17 -9 0
17 6 0
9 -6 -17 0
18 -16 0
18 17 0
16 -17 -18 0
-19 -13 0
-19 18 0
13 -18 19 0
20 5 0
20 19 0
-5 -19 -20 0
22 8 0
22 21 0
-8 -21 -22 0
16 22 -23 0
-16 -22 -23 0
16 -22 23 0
-16 22 23 0
20 23 -24 0
-20 -23 -24 0
20 -23 24 0
-20 23 24 0
-25 -6 0
-25 6 0
-24 25 -26 0
24 -25 -26 0
-24 -25 26 0
24 25 26 0
28 27 0
28 -4 0
-27 4 -28 0
26 -28 -29 0
-26 28 -29 0
26 28 29 0
-26 -28 29 0
-21 -8 -30 0
21 8 -30 0
-21 8 30 0
21 -8 30 0
-31 -30 0
-31 11 0
30 -11 31 0
2 -8 -32 0
-2 8 -32 0
2 8 32 0
-2 -8 32 0
-33 31 0
-33 -32 0
-31 32 33 0
34 29 0
34 33 0
-29 -33 -34 0
5 -13 -9 12 -6 0
18 33 -27 11 0
-10 1 -21 -26 30 0
-23 21 0
-17 -30 0
-1 -12 8 0
33 -18 -23 -32 1 0
5 -13 28 -22 -29 0
17 -10 3 19 14 -28 0
13 3 -23 -24 22 0
-20 10 -19 1 0
13 21 3 0
-24 16 0
17 13 2 -9 -31 11 0
-1 4 -12 -23 2 21 0
-7 19 -11 -13 0
11 30 0
5 -4 34 -3 0
-26 19 2 -30 0
-14 2 7 -10 0
-2 18 8 0
13 -23 -27 8 0
-32 -26 -10 1 -4 27 0
33 -20 -17 -14 0
34 0
